0 178 609
1 550 58
2 303 463
3 575 155
4 579 278
5 273 420
6 628 457
7 84 78
8 9 167
9 348 82
10 109 292
11 86 23
12 700 361
13 673 614
14 269 722
15 134 378
16 348 245
17 53 52
18 83 3
19 701 170
20 308 38
21 744 383
22 230 330
23 81 110
24 793 568
25 387 0
26 695 317
27 527 29
28 554 10
29 425 671
30 36 213
31 672 66
32 335 444
33 728 663
34 17 425
35 230 664
36 187 657
37 583 726
38 558 663
39 189 494
40 747 430
41 231 250
42 182 219
43 572 739
44 6 185
45 452 756
46 332 213
47 755 682
48 637 154
49 323 392
